NAME: random-96-7579
TYPE: TSP
COMMENT: size=96 seed=7579
DIMENSION: 194
EDGE_WEIGHT_TYPE: EUC_2D
NODE_COORD_SECTION
+0 253 759
-0 253 759
+1 531 115
-1 644 547
+2 661 163
-2 578 943
+3 709 804
-3 438 179
+4 691 565
-4 825 966
+5 329 216
-5 950 906
+6 29 736
-6 362 430
+7 120 807
-7 510 182
+8 565 320
-8 24 418
+9 123 667
-9 624 463
+10 709 526
-10 928 821
+11 576 505
-11 823 554
+12 624 74
-12 156 447
+13 38 875
-13 638 843
+14 307 943
-14 40 864
+15 206 133
-15 807 97
+16 160 166
-16 684 743
+17 611 181
-17 824 582
+18 965 52
-18 777 866
+19 720 131
-19 238 812
+20 307 776
-20 551 680
+21 83 68
-21 182 357
+22 751 644
-22 603 530
+23 375 848
-23 848 797
+24 983 204
-24 75 620
+25 495 101
-25 437 315
+26 568 478
-26 76 113
+27 876 697
-27 331 612
+28 14 75
-28 120 35
+29 348 57
-29 320 312
+30 757 96
-30 692 699
+31 364 259
-31 551 624
+32 437 316
-32 284 508
+33 545 847
-33 265 473
+34 216 902
-34 359 703
+35 226 222
-35 197 69
+36 220 4
-36 682 334
+37 195 280
-37 936 994
+38 120 790
-38 773 574
+39 211 95
-39 978 312
+40 151 304
-40 77 450
+41 697 475
-41 276 504
+42 807 663
-42 736 462
+43 571 139
-43 590 714
+44 151 180
-44 772 163
+45 12 374
-45 378 614
+46 127 658
-46 134 879
+47 652 152
-47 939 874
+48 715 973
-48 859 745
+49 448 4
-49 278 258
+50 289 471
-50 415 533
+51 871 661
-51 558 101
+52 750 224
-52 797 692
+53 930 680
-53 862 488
+54 836 245
-54 832 707
+55 360 806
-55 488 686
+56 764 46
-56 226 306
+57 660 570
-57 274 225
+58 492 798
-58 934 625
+59 102 825
-59 123 951
+60 760 641
-60 724 863
+61 328 517
-61 320 424
+62 805 512
-62 88 520
+63 765 999
-63 836 816
+64 253 670
-64 364 773
+65 917 565
-65 959 727
+66 761 280
-66 126 694
+67 465 493
-67 791 868
+68 562 344
-68 41 319
+69 303 436
-69 403 564
+70 14 553
-70 675 666
+71 513 435
-71 94 636
+72 777 741
-72 145 526
+73 98 654
-73 623 263
+74 253 368
-74 670 23
+75 115 914
-75 892 314
+76 331 225
-76 390 863
+77 576 112
-77 732 418
+78 397 472
-78 856 445
+79 355 94
-79 696 713
+80 740 383
-80 807 624
+81 705 963
-81 822 384
+82 827 997
-82 264 632
+83 17 274
-83 200 267
+84 14 169
-84 891 485
+85 43 795
-85 880 400
+86 39 282
-86 323 279
+87 526 820
-87 834 242
+88 232 710
-88 994 89
+89 237 280
-89 156 271
+90 229 947
-90 477 466
+91 668 361
-91 573 7
+92 462 225
-92 647 899
+93 868 866
-93 936 782
+94 566 547
-94 238 469
+95 809 153
-95 17 369
+96 891 45
-96 788 102
PRECEDENCE_SECTION
+0 -0
+1 -1
+2 -2
+3 -3
+4 -4
+5 -5
+6 -6
+7 -7
+8 -8
+9 -9
+10 -10
+11 -11
+12 -12
+13 -13
+14 -14
+15 -15
+16 -16
+17 -17
+18 -18
+19 -19
+20 -20
+21 -21
+22 -22
+23 -23
+24 -24
+25 -25
+26 -26
+27 -27
+28 -28
+29 -29
+30 -30
+31 -31
+32 -32
+33 -33
+34 -34
+35 -35
+36 -36
+37 -37
+38 -38
+39 -39
+40 -40
+41 -41
+42 -42
+43 -43
+44 -44
+45 -45
+46 -46
+47 -47
+48 -48
+49 -49
+50 -50
+51 -51
+52 -52
+53 -53
+54 -54
+55 -55
+56 -56
+57 -57
+58 -58
+59 -59
+60 -60
+61 -61
+62 -62
+63 -63
+64 -64
+65 -65
+66 -66
+67 -67
+68 -68
+69 -69
+70 -70
+71 -71
+72 -72
+73 -73
+74 -74
+75 -75
+76 -76
+77 -77
+78 -78
+79 -79
+80 -80
+81 -81
+82 -82
+83 -83
+84 -84
+85 -85
+86 -86
+87 -87
+88 -88
+89 -89
+90 -90
+91 -91
+92 -92
+93 -93
+94 -94
+95 -95
+96 -96
EOF
